
Gurobi 11.0.0 (win64) logging started Tue Jul 29 11:38:15 2025

Set parameter LogFile to value "C:\Users\mahu123a\Documents\3l-cvrp-heuristic\data/output/3l-cvrp/all-constraints-heuristic-basic/2025-07-29_11-38-15/BinPackLowerBound.log"

Gurobi 11.0.0 (win64) logging started Tue Jul 29 11:38:16 2025

Set parameter LogFile to value "C:\Users\mahu123a\Documents\3l-cvrp-heuristic\data/output/3l-cvrp/all-constraints-heuristic-basic/2025-07-29_11-38-15/BinPackLowerBound.log"
